c This Formular is generated by mcnf
c
c    horn? no 
c    forced? no 
c    mixed sat? no 
c    clause length = 3 
c
c
c
p cnf 20  37 
-19 -4 2 0
3 -6 13 0
-2 -20 16 0
16 2 15 0
-5 -7 3 0
5 12 -6 0
-10 -3 2 0
-13 -19 4 0
-10 -11 -17 0
3 -8 -16 0
-9 -11 3 0f
-18 -6 -15 0
9 8 2 0
-5 -6 18 0
7 -6 -11 0
-3 12 -11 0
-3 -4 11 0
-5 17 10 0
-10 -5 4 0
20 -11 18 0
-19 -6 -16 0
7 18 -11 0
-18 -11 -20 0
-14 -10 -18 0
14 11 -19 0
-20 -3 -19 0
10 -7 15 0
7 6 -16 0
-4 7 6 0
-7 -11 17 0
11 5 1 0
9 -5 -17 0
-4 -16 -18 0
-18 6 4 0
-17 16 2 0
-9 10 -5 0
-15 10 -12 0
